40
1 0 2
2 0 7
2 1 5
3 1 5
3 2 8
4 0 8
4 1 5
4 2 5
4 3 3
5 0 5
5 1 10
5 2 10
5 3 5
5 4 9
6 0 5
6 1 10
6 2 2
6 4 4
6 5 5
7 1 7
7 2 8
7 3 5
7 4 9
7 5 8
7 6 9
8 0 8
8 1 4
8 2 10
8 3 2
8 4 2
8 5 3
8 6 1
8 7 9
9 0 8
9 1 1
9 4 9
9 5 9
9 6 2
9 7 7
10 0 6
10 1 3
10 2 1
10 3 3
10 4 10
10 6 1
10 7 9
10 8 2
10 9 9
11 0 2
11 1 4
11 2 8
11 3 1
11 5 8
11 6 7
11 7 5
11 8 10
11 10 1
12 0 4
12 4 4
12 5 6
12 7 6
12 8 5
12 9 1
12 10 5
12 11 3
13 0 7
13 1 4
13 2 8
13 3 3
13 4 9
13 6 5
13 7 7
13 8 7
13 9 2
13 10 3
13 11 3
14 0 4
14 1 9
14 2 1
14 6 9
14 8 10
14 9 7
14 10 5
14 11 10
14 12 3
14 13 6
15 0 7
15 1 5
15 3 3
15 4 9
15 5 1
15 6 10
15 7 5
15 8 6
15 9 1
15 10 5
15 11 6
15 12 7
15 13 10
15 14 8
16 2 2
16 3 9
16 4 4
16 5 4
16 6 3
16 8 1
16 9 6
16 10 3
16 12 8
16 14 3
16 15 2
17 0 1
17 3 6
17 4 3
17 5 2
17 6 3
17 7 8
17 11 4
17 14 1
17 15 6
18 0 6
18 1 4
18 2 1
18 3 8
18 4 7
18 5 6
18 8 6
18 10 10
18 12 3
18 13 7
18 14 1
18 15 7
18 16 7
18 17 5
19 0 3
19 1 9
19 2 1
19 4 9
19 5 9
19 6 7
19 7 7
19 8 1
19 9 2
19 10 3
19 12 1
19 14 3
19 15 7
19 16 2
19 18 8
20 0 3
20 1 10
20 2 5
20 3 8
20 4 4
20 5 8
20 6 3
20 7 3
20 8 1
20 11 3
20 13 7
20 14 7
20 15 3
20 16 6
20 17 9
21 0 2
21 1 4
21 2 9
21 3 3
21 4 2
21 5 5
21 6 10
21 7 2
21 8 10
21 9 6
21 11 7
21 12 2
21 13 7
21 14 2
21 17 10
21 18 2
21 20 8
22 0 1
22 2 2
22 3 6
22 4 10
22 7 4
22 8 10
22 12 1
22 13 4
22 14 4
22 15 10
22 16 9
22 17 7
22 18 4
22 19 5
22 20 2
22 21 1
23 0 3
23 1 7
23 3 9
23 6 8
23 7 9
23 8 2
23 10 3
23 11 3
23 12 4
23 13 4
23 14 2
23 15 7
23 16 3
23 18 1
23 19 7
23 20 8
23 21 10
23 22 9
24 1 3
24 2 10
24 4 7
24 5 10
24 7 6
24 8 8
24 9 5
24 10 10
24 11 1
24 12 9
24 13 8
24 14 6
24 15 6
24 16 2
24 17 2
24 18 8
24 19 1
24 20 8
24 21 10
24 22 10
24 23 7
25 0 4
25 1 9
25 3 8
25 4 4
25 5 4
25 6 8
25 7 3
25 9 2
25 10 9
25 11 1
25 12 7
25 13 4
25 16 8
25 17 8
25 18 9
25 20 4
25 22 1
25 23 6
25 24 9
26 0 8
26 1 4
26 2 8
26 3 10
26 4 9
26 5 3
26 6 9
26 7 3
26 8 8
26 9 5
26 10 10
26 12 2
26 13 4
26 14 7
26 15 1
26 17 1
26 19 7
26 20 1
26 21 10
26 23 7
26 24 10
26 25 3
27 0 9
27 2 10
27 3 3
27 4 4
27 5 2
27 6 2
27 7 4
27 8 6
27 9 6
27 10 3
27 11 5
27 12 1
27 13 3
27 14 4
27 16 1
27 17 4
27 18 6
27 19 8
27 21 8
27 22 4
27 24 4
27 25 8
27 26 7
28 0 8
28 1 3
28 2 10
28 4 9
28 5 6
28 7 3
28 8 7
28 9 2
28 11 6
28 12 2
28 13 6
28 14 5
28 15 2
28 16 9
28 17 1
28 19 9
28 20 9
28 21 10
28 22 7
28 23 6
28 24 4
28 25 9
28 26 4
29 0 10
29 1 9
29 2 2
29 3 5
29 4 1
29 5 8
29 6 5
29 7 7
29 8 6
29 10 3
29 13 5
29 14 5
29 15 4
29 16 5
29 17 3
29 18 7
29 20 5
29 22 10
29 23 4
29 25 2
29 27 7
29 28 4
30 0 6
30 2 10
30 3 4
30 4 1
30 5 2
30 6 9
30 7 2
30 8 7
30 9 1
30 10 7
30 11 9
30 12 7
30 14 3
30 15 3
30 16 1
30 17 5
30 18 7
30 19 1
30 20 4
30 21 10
30 22 7
30 23 2
30 24 1
30 25 2
30 26 9
30 27 7
30 28 10
30 29 3
31 0 5
31 1 10
31 2 5
31 3 2
31 4 8
31 6 10
31 7 7
31 8 2
31 9 6
31 10 10
31 12 7
31 13 8
31 15 2
31 16 10
31 17 6
31 18 7
31 19 8
31 20 8
31 22 3
31 24 8
31 25 7
31 27 2
31 28 4
31 30 2
32 0 2
32 1 10
32 2 6
32 3 8
32 4 2
32 5 7
32 6 6
32 8 7
32 9 1
32 11 2
32 12 7
32 13 10
32 14 1
32 15 3
32 16 1
32 17 10
32 19 2
32 20 4
32 21 7
32 22 7
32 23 2
32 24 10
32 25 7
32 26 7
32 27 3
32 28 10
32 29 2
32 31 8
33 1 3
33 2 2
33 3 10
33 4 2
33 5 5
33 6 6
33 7 8
33 8 7
33 13 9
33 14 10
33 15 3
33 16 3
33 17 7
33 19 4
33 22 7
33 24 7
33 25 7
33 26 1
33 29 8
33 31 7
34 0 7
34 4 10
34 5 5
34 6 3
34 7 10
34 8 10
34 9 6
34 10 8
34 11 10
34 12 10
34 14 9
34 15 9
34 16 9
34 17 10
34 19 7
34 21 8
34 22 3
34 24 3
34 25 3
34 28 2
34 29 3
34 33 6
35 0 6
35 1 10
35 2 7
35 4 3
35 6 6
35 8 5
35 9 2
35 11 6
35 12 5
35 13 7
35 14 8
35 15 8
35 16 6
35 18 3
35 19 10
35 20 8
35 23 7
35 24 1
35 26 1
35 27 5
35 29 3
35 30 6
35 31 3
35 32 1
35 33 4
36 0 8
36 2 3
36 3 2
36 4 8
36 5 8
36 6 4
36 7 6
36 8 5
36 9 3
36 10 6
36 13 6
36 14 6
36 15 9
36 17 6
36 18 8
36 19 8
36 20 9
36 22 2
36 23 1
36 24 10
36 25 6
36 26 8
36 27 6
36 28 1
36 29 3
36 30 6
36 31 1
36 32 8
36 34 9
36 35 7
37 1 5
37 3 1
37 4 8
37 5 2
37 6 4
37 7 7
37 8 7
37 9 5
37 11 1
37 12 7
37 13 1
37 14 10
37 15 2
37 16 10
37 17 5
37 19 9
37 20 6
37 21 10
37 22 4
37 23 5
37 24 10
37 25 2
37 29 8
37 30 2
37 31 8
37 32 7
37 33 1
37 34 5
37 35 8
37 36 10
38 0 6
38 3 2
38 4 4
38 5 1
38 6 10
38 7 3
38 8 6
38 10 2
38 11 3
38 12 3
38 13 2
38 14 3
38 15 2
38 16 7
38 17 3
38 18 1
38 19 7
38 20 8
38 21 9
38 22 10
38 24 8
38 25 4
38 27 7
38 28 7
38 29 1
38 30 1
38 31 10
38 32 5
38 33 9
38 34 7
38 35 10
38 36 4
38 37 2
39 0 5
39 1 8
39 2 4
39 3 9
39 4 3
39 5 4
39 6 2
39 7 2
39 8 5
39 10 1
39 11 3
39 12 10
39 13 1
39 14 4
39 15 4
39 17 6
39 18 7
39 19 3
39 20 7
39 21 2
39 22 8
39 23 2
39 24 6
39 25 5
39 26 5
39 27 3
39 28 1
39 29 7
39 34 5
39 37 9
39 38 6
